(declare-const X String)
; FTP\s+\x2FNFO\x2CRegistered\s+Server\s+www\x2Einternet-optimizer\x2Ecom
(assert (not (str.in_re X (re.++ (str.to_re "FTP") (re.+ (re.union (str.to_re " ") (str.to_re "\u{9}") (str.to_re "\u{a}") (str.to_re "\u{c}") (str.to_re "\u{d}"))) (str.to_re "/NFO,Registered") (re.+ (re.union (str.to_re " ") (str.to_re "\u{9}") (str.to_re "\u{a}") (str.to_re "\u{c}") (str.to_re "\u{d}"))) (str.to_re "Server") (re.+ (re.union (str.to_re " ") (str.to_re "\u{9}") (str.to_re "\u{a}") (str.to_re "\u{c}") (str.to_re "\u{d}"))) (str.to_re "www.internet-optimizer.com\u{a}")))))
(check-sat)

(exit)
